Route 1: 0 35 41 43 26 66 42 0
Route 2: 0 45 27 82 17 38 93 40 48 23 0
Route 3: 0 10 47 33 1 5 7 96 88 0
Route 4: 0 55 11 53 8 95 4 0
Route 5: 0 52 89 86 44 19 83 39 12 70 20 15 100 0
Route 6: 0 9 62 46 80 57 81 78 69 92 0
Route 7: 0 18 63 3 71 24 61 97 99 91 0
Route 8: 0 75 34 60 13 54 36 0
Route 9: 0 56 68 98 67 73 6 74 94 84 29 32 0
Route 10: 0 85 87 72 22 50 31 0
Route 11: 0 64 76 79 77 25 51 65 90 58 16 28 0
Route 12: 0 21 30 2 37 49 59 14 0
